decision_x1=[0,4];
decision_x2=[0,4];
decision_x3=[0,4];
decision_x4=[0,4];
decision_x5=[0,4];
decision_x6=[0,4];
decision_x7=[0,4];
decision_x8=[0,4];
random_y1=[0,4];
random_y2=[0,4];
random_y3=[0,4];
random_y4=[0,4];
constraint_x2_x1=[
0,1,6.7|
0,2,6.9|
0,3,2.4|
0,4,0.63|
1,0,3.4|
1,2,2.3|
1,3,8.5|
1,4,2.4|
2,0,3.8|
2,1,4.2|
2,3,6.9|
2,4,2.6|
3,0,9.5|
3,1,6.7|
3,2,3|
3,4,9.8|
4,0,0.69|
4,1,8.7|
4,2,5.8|
4,3,9.9|
];
constraint_x3_x2=[
0,1,5|
0,2,4.4|
0,3,1.4|
0,4,5.1|
1,0,6.7|
1,2,8.4|
1,3,2.6|
1,4,4.7|
2,0,4|
2,1,3.9|
2,3,2.2|
2,4,5.2|
3,0,0.56|
3,1,5.6|
3,2,9.5|
3,4,9.4|
4,0,9|
4,1,0.033|
4,2,3.5|
4,3,4.9|
];
constraint_x4_x1=[
0,1,9.3|
0,2,3.6|
0,3,4.5|
0,4,3.5|
1,0,2.9|
1,2,0.41|
1,3,5.1|
1,4,3|
2,0,2.4|
2,1,7.1|
2,3,0.67|
2,4,1.2|
3,0,6.7|
3,1,4.3|
3,2,5.7|
3,4,7.2|
4,0,3.1|
4,1,7.6|
4,2,1.3|
4,3,8.6|
];
constraint_x4_x2=[
0,1,6.1|
0,2,4.2|
0,3,1.3|
0,4,4.2|
1,0,8|
1,2,7.1|
1,3,9|
1,4,1.4|
2,0,2|
2,1,3.5|
2,3,8.3|
2,4,6.6|
3,0,7.8|
3,1,7.5|
3,2,0.49|
3,4,9.6|
4,0,9.1|
4,1,8.3|
4,2,6.6|
4,3,2.6|
];
constraint_x5_x2=[
0,1,5.2|
0,2,7.2|
0,3,2.4|
0,4,2.9|
1,0,8.4|
1,2,6.2|
1,3,4.1|
1,4,6.4|
2,0,7|
2,1,1.8|
2,3,9.8|
2,4,3.9|
3,0,8.8|
3,1,0.22|
3,2,2.8|
3,4,2.1|
4,0,6.4|
4,1,9.7|
4,2,7.6|
4,3,7.1|
];
constraint_x5_x3=[
0,1,4.7|
0,2,1.5|
0,3,0.86|
0,4,9.7|
1,0,3.5|
1,2,2.3|
1,3,8.9|
1,4,4.4|
2,0,4.9|
2,1,4.2|
2,3,7.6|
2,4,8.5|
3,0,2.4|
3,1,2|
3,2,7.7|
3,4,5.5|
4,0,7.3|
4,1,4.1|
4,2,0.2|
4,3,5.6|
];
constraint_x6_x4=[
0,1,0.2|
0,2,5.3|
0,3,5.2|
0,4,6.1|
1,0,7.7|
1,2,5.8|
1,3,6.1|
1,4,2.4|
2,0,0.018|
2,1,8.2|
2,3,6.1|
2,4,9.3|
3,0,6.2|
3,1,1.4|
3,2,5.2|
3,4,4.4|
4,0,6.5|
4,1,2.7|
4,2,3.5|
4,3,3.1|
];
constraint_x6_x5=[
0,1,6.9|
0,2,8.2|
0,3,8.3|
0,4,6.8|
1,0,2.4|
1,2,4.2|
1,3,1.9|
1,4,2.3|
2,0,0.0097|
2,1,8.3|
2,3,1.5|
2,4,5|
3,0,5.8|
3,1,8.1|
3,2,4.9|
3,4,8.1|
4,0,5.5|
4,1,5.8|
4,2,8.2|
4,3,3.4|
];
constraint_x7_x1=[
0,1,9.2|
0,2,1.5|
0,3,9.6|
0,4,4.3|
1,0,7.2|
1,2,5.8|
1,3,0.29|
1,4,4.8|
2,0,2.9|
2,1,7.9|
2,3,1|
2,4,7.4|
3,0,0.38|
3,1,3.4|
3,2,8.3|
3,4,8.7|
4,0,7.4|
4,1,7|
4,2,3.7|
4,3,3.4|
];
constraint_x7_x4=[
0,1,9.1|
0,2,0.35|
0,3,6.5|
0,4,3.5|
1,0,5.4|
1,2,5.6|
1,3,8.3|
1,4,0.36|
2,0,8.3|
2,1,8.6|
2,3,5.9|
2,4,4.5|
3,0,9.4|
3,1,3|
3,2,4.7|
3,4,8.1|
4,0,8.9|
4,1,2.5|
4,2,0.46|
4,3,4.4|
];
constraint_x7_x5=[
0,1,3.7|
0,2,6.2|
0,3,6.2|
0,4,0.7|
1,0,4.8|
1,2,4.7|
1,3,6.3|
1,4,6.1|
2,0,2.4|
2,1,4.5|
2,3,9.9|
2,4,7.2|
3,0,0.58|
3,1,4.4|
3,2,8.8|
3,4,2.1|
4,0,3.4|
4,1,8.5|
4,2,1.9|
4,3,7.1|
];
constraint_x7_x6=[
0,1,4.6|
0,2,8.9|
0,3,4.9|
0,4,6|
1,0,7.9|
1,2,2.6|
1,3,7.2|
1,4,9.8|
2,0,7.9|
2,1,2.6|
2,3,3.5|
2,4,1.4|
3,0,7|
3,1,4.8|
3,2,8.4|
3,4,5.1|
4,0,0.56|
4,1,2.3|
4,2,4|
4,3,5.3|
];
constraint_x8_x2=[
0,1,0.83|
0,2,9.6|
0,3,3.8|
0,4,5.9|
1,0,7|
1,2,8.3|
1,3,7.7|
1,4,1.5|
2,0,7|
2,1,7.8|
2,3,2.3|
2,4,9.1|
3,0,0.88|
3,1,9.3|
3,2,9.4|
3,4,7|
4,0,8|
4,1,1.3|
4,2,7.2|
4,3,0.56|
];
constraint_x8_x5=[
0,1,3.5|
0,2,9.1|
0,3,3.7|
0,4,9.8|
1,0,6.7|
1,2,8.3|
1,3,2.4|
1,4,7.5|
2,0,7.2|
2,1,6.9|
2,3,3.9|
2,4,3.6|
3,0,0.94|
3,1,0.33|
3,2,0.54|
3,4,4.2|
4,0,5.6|
4,1,8.9|
4,2,4.7|
4,3,9|
];
constraint_x1_y1=[
0,0,1|
0,1,0.63|
0,2,2.5|
0,3,0.18|
0,4,6.3|
1,0,5.8|
1,1,9.7|
1,2,1.9|
1,3,9.8|
1,4,6.3|
2,0,1.2|
2,1,6|
2,2,6.9|
2,3,8.1|
2,4,7.4|
3,0,8.8|
3,1,9.7|
3,2,8.5|
3,3,0.48|
3,4,9|
4,0,6.9|
4,1,2.8|
4,2,6.2|
4,3,0.12|
4,4,5.4|
];
constraint_x2_y2=[
0,0,8.6|
0,1,9.5|
0,2,2.7|
0,3,0.32|
0,4,4.8|
1,0,3.9|
1,1,1.4|
1,2,9.5|
1,3,4.8|
1,4,4|
2,0,4.9|
2,1,4.3|
2,2,0.74|
2,3,7.2|
2,4,5|
3,0,0.0059|
3,1,0.95|
3,2,6.4|
3,3,4.7|
3,4,6.6|
4,0,2|
4,1,5.2|
4,2,7.7|
4,3,5.1|
4,4,4.8|
];
constraint_x3_y3=[
0,0,4.5|
0,1,5.6|
0,2,3.1|
0,3,5.7|
0,4,0.45|
1,0,8.4|
1,1,0.25|
1,2,7.1|
1,3,0.71|
1,4,4.4|
2,0,0.53|
2,1,3.4|
2,2,4.7|
2,3,1.1|
2,4,1.6|
3,0,0.84|
3,1,3.3|
3,2,3|
3,3,8.9|
3,4,3.3|
4,0,1.4|
4,1,9.6|
4,2,0.26|
4,3,1.6|
4,4,1.2|
];
constraint_x4_y4=[
0,0,1.6|
0,1,2.4|
0,2,4.4|
0,3,1.2|
0,4,0.036|
1,0,3.1|
1,1,5.3|
1,2,0.86|
1,3,8|
1,4,0.68|
2,0,0.29|
2,1,3.2|
2,2,7.4|
2,3,7.5|
2,4,3.5|
3,0,0.93|
3,1,9.1|
3,2,2.6|
3,3,4.2|
3,4,3.7|
4,0,4.2|
4,1,9.6|
4,2,8.8|
4,3,0.21|
4,4,7.6|
];
initial_distribution_y1=[0.44,0.041,0.084,0.37,0.066];
initial_distribution_y2=[0.4,0.015,0.17,0.38,0.036];
initial_distribution_y3=[0.13,0.29,0.23,0.27,0.087];
initial_distribution_y4=[0.31,0.048,0.3,0.25,0.097];
transition_y1=[
0.31,0.095,0.077,0.22,0.3|
0.025,0.27,0.24,0.29,0.17|
0.18,0.16,0.24,0.31,0.12|
0.018,0.23,0.2,0.27,0.29|
0.39,0.4,0.14,0.049,0.022|
];
transition_y2=[
0.36,0.28,0.22,0.052,0.083|
0.22,0.033,0.16,0.036,0.54|
0.3,0.15,0.29,0.028,0.24|
0.24,0.026,0.31,0.078,0.35|
0.1,0.035,0.32,0.41,0.13|
];
transition_y3=[
0.13,0.37,0.081,0.32,0.098|
0.13,0.28,0.28,0.18,0.14|
0.23,0.2,0.14,0.25,0.19|
0.18,0.19,0.2,0.16,0.26|
0.017,0.32,0.13,0.18,0.35|
];
transition_y4=[
0.021,0.3,0.02,0.37,0.29|
0.076,0.2,0.27,0.21,0.24|
0.42,0.26,0.11,0.048,0.16|
0.13,0.3,0.18,0.14,0.25|
0.038,0.074,0.5,0.057,0.33|
];
